\ File written by HiGHS .lp file handler
min
 obj: 
st
 10a_i=0: +1 e('source_4366724560', 1, 0) = +1
 10b_i=0: +1 e(4, 'sink_4366724560', 0) = +1
 10a_i=1: +1 e('source_4366724560', 1, 1) = +1
 10b_i=1: +1 e(4, 'sink_4366724560', 1) = +1
 10c_v=1_i=0: -1 e(1, 2, 0) -1 e(1, 3, 0) +1 e('source_4366724560', 1, 0) = +0
 10c_v=2_i=0: +1 e(1, 2, 0) -1 e(2, 4, 0) = +0
 10c_v=4_i=0: +1 e(2, 4, 0) -1 e(4, 'sink_4366724560', 0) +1 e(3, 4, 0) = +0
 10c_v=3_i=0: +1 e(1, 3, 0) -1 e(3, 4, 0) = +0
 10c_v=1_i=1: -1 e(1, 2, 1) -1 e(1, 3, 1) +1 e('source_4366724560', 1, 1) = +0
 10c_v=2_i=1: +1 e(1, 2, 1) -1 e(2, 4, 1) = +0
 10c_v=4_i=1: +1 e(2, 4, 1) -1 e(4, 'sink_4366724560', 1) +1 e(3, 4, 1) = +0
 10c_v=3_i=1: +1 e(1, 3, 1) -1 e(3, 4, 1) = +0
 7a_i=0_j=0: +1 e(1, 2, 0) +1 e(2, 4, 0) -2 col_ekk_0 >= +0
 7a_i=0_j=1: +1 e(1, 3, 0) +1 e(3, 4, 0) -2 col_ekk_1 >= +0
 7a_i=1_j=0: +1 e(1, 2, 1) +1 e(2, 4, 1) -2 col_ekk_2 >= +0
 7a_i=1_j=1: +1 e(1, 3, 1) +1 e(3, 4, 1) -2 col_ekk_3 >= +0
 7b_j=0: +1 col_ekk_0 +1 col_ekk_2 >= +1
 7b_j=1: +1 col_ekk_1 +1 col_ekk_3 >= +1
 safe_list_u=source_4366724560_v=1_i=0: +1 e('source_4366724560', 1, 0) = +1
 safe_list_u=1_v=2_i=0: +1 e(1, 2, 0) = +1
 safe_list_u=2_v=4_i=0: +1 e(2, 4, 0) = +1
 safe_list_u=4_v=sink_4366724560_i=0: +1 e(4, 'sink_4366724560', 0) = +1
 safe_list_u=source_4366724560_v=1_i=1: +1 e('source_4366724560', 1, 1) = +1
 safe_list_u=1_v=3_i=1: +1 e(1, 3, 1) = +1
 safe_list_u=3_v=4_i=1: +1 e(3, 4, 1) = +1
 safe_list_u=4_v=sink_4366724560_i=1: +1 e(4, 'sink_4366724560', 1) = +1
 10e_u=1_v=2_i=0: -20 e(1, 2, 0) +1 p(1, 2, 0) <= +0
 10f_u=1_v=2_i=0: +1 p(1, 2, 0) -1 w0 <= -0
 10g_u=1_v=2_i=0: +20 e(1, 2, 0) -1 p(1, 2, 0) +1 w0 <= +20
 10e_u=1_v=2_i=1: -20 e(1, 2, 1) +1 p(1, 2, 1) <= +0
 10f_u=1_v=2_i=1: +1 p(1, 2, 1) -1 w1 <= -0
 10g_u=1_v=2_i=1: +20 e(1, 2, 1) -1 p(1, 2, 1) +1 w1 <= +20
 10d_u=1_v=2_i=1: +1 p(1, 2, 0) +1 p(1, 2, 1) = +10
 10e_u=1_v=3_i=0: -20 e(1, 3, 0) +1 p(1, 3, 0) <= +0
 10f_u=1_v=3_i=0: +1 p(1, 3, 0) -1 w0 <= -0
 10g_u=1_v=3_i=0: +20 e(1, 3, 0) -1 p(1, 3, 0) +1 w0 <= +20
 10e_u=1_v=3_i=1: -20 e(1, 3, 1) +1 p(1, 3, 1) <= +0
 10f_u=1_v=3_i=1: +1 p(1, 3, 1) -1 w1 <= -0
 10g_u=1_v=3_i=1: +20 e(1, 3, 1) -1 p(1, 3, 1) +1 w1 <= +20
 10d_u=1_v=3_i=1: +1 p(1, 3, 0) +1 p(1, 3, 1) = +20
 10e_u=2_v=4_i=0: -20 e(2, 4, 0) +1 p(2, 4, 0) <= +0
 10f_u=2_v=4_i=0: +1 p(2, 4, 0) -1 w0 <= -0
 10g_u=2_v=4_i=0: +20 e(2, 4, 0) -1 p(2, 4, 0) +1 w0 <= +20
 10e_u=2_v=4_i=1: -20 e(2, 4, 1) +1 p(2, 4, 1) <= +0
 10f_u=2_v=4_i=1: +1 p(2, 4, 1) -1 w1 <= -0
 10g_u=2_v=4_i=1: +20 e(2, 4, 1) -1 p(2, 4, 1) +1 w1 <= +20
 10d_u=2_v=4_i=1: +1 p(2, 4, 0) +1 p(2, 4, 1) = +10
 10e_u=3_v=4_i=0: -20 e(3, 4, 0) +1 p(3, 4, 0) <= +0
 10f_u=3_v=4_i=0: +1 p(3, 4, 0) -1 w0 <= -0
 10g_u=3_v=4_i=0: +20 e(3, 4, 0) -1 p(3, 4, 0) +1 w0 <= +20
 10e_u=3_v=4_i=1: -20 e(3, 4, 1) +1 p(3, 4, 1) <= +0
 10f_u=3_v=4_i=1: +1 p(3, 4, 1) -1 w1 <= -0
 10g_u=3_v=4_i=1: +20 e(3, 4, 1) -1 p(3, 4, 1) +1 w1 <= +20
 10d_u=3_v=4_i=1: +1 p(3, 4, 0) +1 p(3, 4, 1) = +20
bounds
 e(1, 2, 0) <= 1
 e(1, 3, 0) <= 1
 e(2, 4, 0) <= 1
 e(4, 'sink_4366724560', 0) <= 1
 e(3, 4, 0) <= 1
 e('source_4366724560', 1, 0) <= 1
 e(1, 2, 1) <= 1
 e(1, 3, 1) <= 1
 e(2, 4, 1) <= 1
 e(4, 'sink_4366724560', 1) <= 1
 e(3, 4, 1) <= 1
 e('source_4366724560', 1, 1) <= 1
 col_ekk_0 <= 1
 col_ekk_1 <= 1
 col_ekk_2 <= 1
 col_ekk_3 <= 1
 p(1, 2, 0) <= 20
 p(1, 3, 0) <= 20
 p(2, 4, 0) <= 20
 p(4, 'sink_4366724560', 0) <= 20
 p(3, 4, 0) <= 20
 p('source_4366724560', 1, 0) <= 20
 p(1, 2, 1) <= 20
 p(1, 3, 1) <= 20
 p(2, 4, 1) <= 20
 p(4, 'sink_4366724560', 1) <= 20
 p(3, 4, 1) <= 20
 p('source_4366724560', 1, 1) <= 20
 w0 <= 20
 w1 <= 20
bin
 e(1, 2, 0)
 e(1, 3, 0)
 e(2, 4, 0)
 e(4, 'sink_4366724560', 0)
 e(3, 4, 0)
 e('source_4366724560', 1, 0)
 e(1, 2, 1)
 e(1, 3, 1)
 e(2, 4, 1)
 e(4, 'sink_4366724560', 1)
 e(3, 4, 1)
 e('source_4366724560', 1, 1)
 col_ekk_0
 col_ekk_1
 col_ekk_2
 col_ekk_3
gen
semi
end
